unknown
(model
; cardinality of BoundSet is 2
(declare-sort BoundSet 0)
; rep: @uc_BoundSet_0
; rep: @uc_BoundSet_1
; cardinality of UnboundSet is 1
(declare-sort UnboundSet 0)
(declare-fun groundTerm_3 () UnboundSet)
(define-fun Says ((BOUND_VARIABLE_412 BoundSet)) Bool (= @uc_BoundSet_0 BOUND_VARIABLE_412))
(define-fun IsBestClass ((BOUND_VARIABLE_412 BoundSet)) Bool (= @uc_BoundSet_1 BOUND_VARIABLE_412))
)
sat
(model
; cardinality of BoundSet is 2
(declare-sort BoundSet 0)
; rep: @uc_BoundSet_0
; rep: @uc_BoundSet_1
; cardinality of UnboundSet is 1
(declare-sort UnboundSet 0)
(declare-fun groundTerm_5 () UnboundSet)
(define-fun Says ((BOUND_VARIABLE_439 BoundSet)) Bool (= @uc_BoundSet_0 BOUND_VARIABLE_439))
(define-fun IsBestClass ((BOUND_VARIABLE_439 BoundSet)) Bool (= @uc_BoundSet_1 BOUND_VARIABLE_439))
)
